formal/counter/model/design_smt2.smt2
; SMT-LIBv2 description generated by Yosys 0.60+78 (git sha1 156752695, clang++ 18.1.8 -fPIC -O3)
; yosys-smt2-module counter
(declare-sort |counter_s| 0)
(declare-fun |counter_is| (|counter_s|) Bool)
; yosys-smt2-witness {"offset": 0, "path": ["$auto$async2sync.cc:107:execute$37"], "smtname": 0, "smtoffset": 0, "type": "reg", "width": 1}
(declare-fun |counter#0| (|counter_s|) (_ BitVec 1)) ; $auto$async2sync.cc:107:execute$37
; yosys-smt2-register $auto$async2sync.cc:107:execute$37 1
(define-fun |counter_n $auto$async2sync.cc:107:execute$37| ((state |counter_s|)) Bool (= ((_ extract 0 0) (|counter#0| state)) #b1))
; yosys-smt2-witness {"offset": 0, "path": ["$auto$async2sync.cc:107:execute$43"], "smtname": 1, "smtoffset": 0, "type": "reg", "width": 1}
(declare-fun |counter#1| (|counter_s|) (_ BitVec 1)) ; $auto$async2sync.cc:107:execute$43
; yosys-smt2-register $auto$async2sync.cc:107:execute$43 1
(define-fun |counter_n $auto$async2sync.cc:107:execute$43| ((state |counter_s|)) Bool (= ((_ extract 0 0) (|counter#1| state)) #b1))
; yosys-smt2-witness {"offset": 0, "path": ["$auto$async2sync.cc:116:execute$41"], "smtname": 2, "smtoffset": 0, "type": "reg", "width": 1}
(declare-fun |counter#2| (|counter_s|) (_ BitVec 1)) ; $auto$async2sync.cc:116:execute$41
; yosys-smt2-register $auto$async2sync.cc:116:execute$41 1
(define-fun |counter_n $auto$async2sync.cc:116:execute$41| ((state |counter_s|)) Bool (= ((_ extract 0 0) (|counter#2| state)) #b1))
; yosys-smt2-witness {"offset": 0, "path": ["$auto$async2sync.cc:116:execute$47"], "smtname": 3, "smtoffset": 0, "type": "reg", "width": 1}
(declare-fun |counter#3| (|counter_s|) (_ BitVec 1)) ; $auto$async2sync.cc:116:execute$47
; yosys-smt2-register $auto$async2sync.cc:116:execute$47 1
(define-fun |counter_n $auto$async2sync.cc:116:execute$47| ((state |counter_s|)) Bool (= ((_ extract 0 0) (|counter#3| state)) #b1))
(declare-fun |counter#4| (|counter_s|) Bool) ; \clk
; yosys-smt2-input clk 1
; yosys-smt2-wire clk 1
; yosys-smt2-clock clk posedge
; yosys-smt2-witness {"offset": 0, "path": ["\\clk"], "smtname": "clk", "smtoffset": 0, "type": "posedge", "width": 1}
; yosys-smt2-witness {"offset": 0, "path": ["\\clk"], "smtname": "clk", "smtoffset": 0, "type": "input", "width": 1}
(define-fun |counter_n clk| ((state |counter_s|)) Bool (|counter#4| state))
; yosys-smt2-anyinit counter#5 4 counter.sv:13.5-24.8
; yosys-smt2-witness {"offset": 0, "path": ["\\count"], "smtname": 5, "smtoffset": 0, "type": "init", "width": 4}
(declare-fun |counter#5| (|counter_s|) (_ BitVec 4)) ; \count
; yosys-smt2-output count 4
; yosys-smt2-register count 4
; yosys-smt2-wire count 4
(define-fun |counter_n count| ((state |counter_s|)) (_ BitVec 4) (|counter#5| state))
; yosys-smt2-anyinit counter#6 4 counter.sv:35.9-43.12
; yosys-smt2-witness {"offset": 0, "path": ["\\prev_count"], "smtname": 6, "smtoffset": 0, "type": "init", "width": 4}
(declare-fun |counter#6| (|counter_s|) (_ BitVec 4)) ; \prev_count
; yosys-smt2-register prev_count 4
; yosys-smt2-wire prev_count 4
(define-fun |counter_n prev_count| ((state |counter_s|)) (_ BitVec 4) (|counter#6| state))
(declare-fun |counter#7| (|counter_s|) Bool) ; \rst
; yosys-smt2-input rst 1
; yosys-smt2-wire rst 1
; yosys-smt2-witness {"offset": 0, "path": ["\\rst"], "smtname": "rst", "smtoffset": 0, "type": "input", "width": 1}
(define-fun |counter_n rst| ((state |counter_s|)) Bool (|counter#7| state))
; yosys-smt2-witness {"offset": 0, "path": ["\\started"], "smtname": 8, "smtoffset": 0, "type": "reg", "width": 1}
(declare-fun |counter#8| (|counter_s|) (_ BitVec 1)) ; \started
; yosys-smt2-register started 1
; yosys-smt2-wire started 1
(define-fun |counter_n started| ((state |counter_s|)) Bool (= ((_ extract 0 0) (|counter#8| state)) #b1))
(define-fun |counter#9| ((state |counter_s|)) (_ BitVec 1) (bvnot (ite (|counter#4| state) #b1 #b0))) ; $auto$rtlil.cc:3322:Not$62
; yosys-smt2-assume 0 $auto$formalff.cc:987:execute$63
(define-fun |counter_u 0| ((state |counter_s|)) Bool (or (= ((_ extract 0 0) (|counter#9| state)) #b1) (not true))) ; $auto$formalff.cc:987:execute$63
; yosys-smt2-assert 0 _witness_.check_assert_counter_sv_49_6 counter.sv:49.17-49.80
(define-fun |counter_a 0| ((state |counter_s|)) Bool (or (= ((_ extract 0 0) (|counter#2| state)) #b1) (not (= ((_ extract 0 0) (|counter#0| state)) #b1)))) ; _witness_.check_assert_counter_sv_49_6
; yosys-smt2-assert 1 _witness_.check_assert_counter_sv_53_12 counter.sv:53.21-53.45
(define-fun |counter_a 1| ((state |counter_s|)) Bool (or (= ((_ extract 0 0) (|counter#3| state)) #b1) (not (= ((_ extract 0 0) (|counter#1| state)) #b1)))) ; _witness_.check_assert_counter_sv_53_12
(define-fun |counter#10| ((state |counter_s|)) (_ BitVec 1) (ite (|counter#7| state) #b0 #b1)) ; $0\started[0:0]
(define-fun |counter#11| ((state |counter_s|)) (_ BitVec 4) (ite (|counter#7| state) #b0000 (|counter#5| state))) ; $0\prev_count[3:0]
(define-fun |counter#12| ((state |counter_s|)) (_ BitVec 4) (bvadd (|counter#5| state) #b0001)) ; $add$counter.sv:22$3_Y
(define-fun |counter#13| ((state |counter_s|)) Bool (= (|counter#5| state) #b1111)) ; $eq$counter.sv:19$2_Y
(define-fun |counter#14| ((state |counter_s|)) (_ BitVec 4) (ite (|counter#13| state) #b0000 (|counter#12| state))) ; $procmux$28_Y
(define-fun |counter#15| ((state |counter_s|)) (_ BitVec 4) (ite (|counter#7| state) #b0000 (|counter#14| state))) ; $0\count[3:0]
(define-fun |counter#16| ((state |counter_s|)) (_ BitVec 4) (bvadd (|counter#6| state) #b0001)) ; $add$counter.sv:49$7_Y
(define-fun |counter#17| ((state |counter_s|)) Bool (= (|counter#5| state) (|counter#16| state))) ; $eq$counter.sv:49$8_Y
(define-fun |counter#18| ((state |counter_s|)) Bool (= (|counter#6| state) #b1111)) ; $eq$counter.sv:49$9_Y
(define-fun |counter#19| ((state |counter_s|)) Bool (or  (|counter#17| state) false  (|counter#18| state) false)) ; $logic_or$counter.sv:49$10_Y
(define-fun |counter#20| ((state |counter_s|)) Bool (= (|counter#6| state) #b1110)) ; $eq$counter.sv:52$11_Y
(define-fun |counter#21| ((state |counter_s|)) (_ BitVec 1) (ite (|counter#20| state) #b1 #b0)) ; $procmux$15_Y
(define-fun |counter#22| ((state |counter_s|)) (_ BitVec 1) (ite (= ((_ extract 0 0) (|counter#8| state)) #b1) (|counter#21| state) #b0)) ; $assert$counter.sv:53$12_EN
(define-fun |counter#23| ((state |counter_s|)) (_ BitVec 1) (ite (= ((_ extract 0 0) (|counter#8| state)) #b1) #b1 #b0)) ; $assert$counter.sv:49$6_EN
(define-fun |counter_a| ((state |counter_s|)) Bool (and
  (|counter_a 0| state)
  (|counter_a 1| state)
))
(define-fun |counter_u| ((state |counter_s|)) Bool 
  (|counter_u 0| state)
)
(define-fun |counter_i| ((state |counter_s|)) Bool (and
  (= (= ((_ extract 0 0) (|counter#0| state)) #b1) false) ; $auto$async2sync.cc:107:execute$37
  (= (= ((_ extract 0 0) (|counter#1| state)) #b1) false) ; $auto$async2sync.cc:107:execute$43
  (= (= ((_ extract 0 0) (|counter#2| state)) #b1) true) ; $auto$async2sync.cc:116:execute$41
  (= (= ((_ extract 0 0) (|counter#3| state)) #b1) true) ; $auto$async2sync.cc:116:execute$47
  (= (= ((_ extract 0 0) (|counter#8| state)) #b1) false) ; started
))
(define-fun |counter_h| ((state |counter_s|)) Bool true)
(define-fun |counter_t| ((state |counter_s|) (next_state |counter_s|)) Bool (and
  (= (|counter#10| state) (|counter#8| next_state)) ; $procdff$34 \started
  (= (|counter#11| state) (|counter#6| next_state)) ; $procdff$33 \prev_count
  (= (|counter#15| state) (|counter#5| next_state)) ; $procdff$35 \count
  (= (ite (|counter#13| state) #b1 #b0) (|counter#3| next_state)) ; $auto$async2sync.cc:118:execute$48 $auto$async2sync.cc:116:execute$47
  (= (ite (|counter#19| state) #b1 #b0) (|counter#2| next_state)) ; $auto$async2sync.cc:118:execute$42 $auto$async2sync.cc:116:execute$41
  (= (|counter#22| state) (|counter#1| next_state)) ; $auto$async2sync.cc:110:execute$45 $auto$async2sync.cc:107:execute$43
  (= (|counter#23| state) (|counter#0| next_state)) ; $auto$async2sync.cc:110:execute$39 $auto$async2sync.cc:107:execute$37
)) ; end of module counter
; yosys-smt2-topmod counter
; end of yosys output
